NAME          
ROWS
 N  OBJ
 L  c1
COLUMNS
    MARKER    'MARKER'                 'INTORG'
    x[1]      c1        44
    x[1]      OBJ       -13
    x[2]      c1        65
    x[2]      OBJ       -28
    x[3]      c1        958
    x[3]      OBJ       -982
    x[4]      c1        536
    x[4]      OBJ       -590
    x[5]      c1        199
    x[5]      OBJ       -145
    x[6]      c1        200
    x[6]      OBJ       -155
    x[7]      c1        931
    x[7]      OBJ       -977
    x[8]      c1        537
    x[8]      OBJ       -460
    x[9]      c1        184
    x[9]      OBJ       -143
    x[10]     c1        492
    x[10]     OBJ       -497
    x[11]     c1        32
    x[11]     OBJ       -24
    x[12]     c1        445
    x[12]     OBJ       -459
    x[13]     c1        328
    x[13]     OBJ       -306
    x[14]     c1        99
    x[14]     OBJ       -176
    x[15]     c1        591
    x[15]     OBJ       -609
    x[16]     c1        782
    x[16]     OBJ       -702
    x[17]     c1        158
    x[17]     OBJ       -79
    x[18]     c1        654
    x[18]     OBJ       -569
    x[19]     c1        938
    x[19]     OBJ       -950
    x[20]     c1        77
    x[20]     OBJ       -51
    x[21]     c1        743
    x[21]     OBJ       -793
    x[22]     c1        947
    x[22]     OBJ       -943
    x[23]     c1        97
    x[23]     OBJ       -128
    x[24]     c1        600
    x[24]     OBJ       -569
    x[25]     c1        929
    x[25]     OBJ       -907
    x[26]     c1        479
    x[26]     OBJ       -456
    x[27]     c1        668
    x[27]     OBJ       -741
    x[28]     c1        998
    x[28]     OBJ       -955
    x[29]     c1        760
    x[29]     OBJ       -715
    x[30]     c1        713
    x[30]     OBJ       -650
    x[31]     c1        223
    x[31]     OBJ       -205
    x[32]     c1        734
    x[32]     OBJ       -703
    x[33]     c1        913
    x[33]     OBJ       -924
    x[34]     c1        -51
    x[34]     OBJ       -8
    x[35]     c1        517
    x[35]     OBJ       -441
    x[36]     c1        902
    x[36]     OBJ       -922
    x[37]     c1        423
    x[37]     OBJ       -464
    x[38]     c1        422
    x[38]     OBJ       -433
    x[39]     c1        46
    x[39]     OBJ       -43
    x[40]     c1        678
    x[40]     OBJ       -704
    x[41]     c1        722
    x[41]     OBJ       -630
    x[42]     c1        553
    x[42]     OBJ       -551
    x[43]     c1        297
    x[43]     OBJ       -268
    x[44]     c1        314
    x[44]     OBJ       -291
    x[45]     c1        289
    x[45]     OBJ       -304
    x[46]     c1        770
    x[46]     OBJ       -750
    x[47]     c1        763
    x[47]     OBJ       -766
    x[48]     c1        677
    x[48]     OBJ       -577
    x[49]     c1        68
    x[49]     OBJ       -84
    x[50]     c1        756
    x[50]     OBJ       -672
    x[51]     c1        -9
    x[51]     OBJ       -88
    x[52]     c1        93
    x[52]     OBJ       -168
    x[53]     c1        358
    x[53]     OBJ       -258
    x[54]     c1        667
    x[54]     OBJ       -630
    x[55]     c1        541
    x[55]     OBJ       -590
    x[56]     c1        989
    x[56]     OBJ       -998
    x[57]     c1        322
    x[57]     OBJ       -343
    x[58]     c1        97
    x[58]     OBJ       -22
    x[59]     c1        180
    x[59]     OBJ       -236
    x[60]     c1        830
    x[60]     OBJ       -809
    x[61]     c1        457
    x[61]     OBJ       -550
    x[62]     c1        502
    x[62]     OBJ       -445
    x[63]     c1        715
    x[63]     OBJ       -808
    x[64]     c1        56
    x[64]     OBJ       -118
    x[65]     c1        533
    x[65]     OBJ       -487
    x[66]     c1        617
    x[66]     OBJ       -635
    x[67]     c1        375
    x[67]     OBJ       -291
    x[68]     c1        667
    x[68]     OBJ       -704
    x[69]     c1        203
    x[69]     OBJ       -234
    x[70]     c1        158
    x[70]     OBJ       -167
    x[71]     c1        77
    x[71]     OBJ       -165
    x[72]     c1        544
    x[72]     OBJ       -468
    x[73]     c1        598
    x[73]     OBJ       -525
    x[74]     c1        208
    x[74]     OBJ       -177
    x[75]     c1        724
    x[75]     OBJ       -822
    x[76]     c1        434
    x[76]     OBJ       -423
    x[77]     c1        298
    x[77]     OBJ       -342
    x[78]     c1        107
    x[78]     OBJ       -155
    x[79]     c1        144
    x[79]     OBJ       -90
    x[80]     c1        -43
    x[80]     OBJ       -8
    x[81]     c1        992
    x[81]     OBJ       -920
    x[82]     c1        -26
    x[82]     OBJ       -23
    x[83]     c1        310
    x[83]     OBJ       -378
    x[84]     c1        1003
    x[84]     OBJ       -915
    x[85]     c1        530
    x[85]     OBJ       -477
    x[86]     c1        614
    x[86]     OBJ       -630
    x[87]     c1        334
    x[87]     OBJ       -428
    x[88]     c1        301
    x[88]     OBJ       -347
    x[89]     c1        556
    x[89]     OBJ       -502
    x[90]     c1        55
    x[90]     OBJ       -139
    x[91]     c1        805
    x[91]     OBJ       -864
    x[92]     c1        199
    x[92]     OBJ       -232
    x[93]     c1        962
    x[93]     OBJ       -985
    x[94]     c1        95
    x[94]     OBJ       -31
    x[95]     c1        655
    x[95]     OBJ       -708
    x[96]     c1        428
    x[96]     OBJ       -505
    x[97]     c1        791
    x[97]     OBJ       -803
    x[98]     c1        298
    x[98]     OBJ       -389
    x[99]     c1        357
    x[99]     OBJ       -326
    x[100]    c1        1043
    x[100]    OBJ       -952
RHS
    rhs       c1        23472
RANGES
BOUNDS
 LO bounds    x[1]      0
 PL bounds    x[1]
 LO bounds    x[2]      0
 PL bounds    x[2]
 LO bounds    x[3]      0
 PL bounds    x[3]
 LO bounds    x[4]      0
 PL bounds    x[4]
 LO bounds    x[5]      0
 PL bounds    x[5]
 LO bounds    x[6]      0
 PL bounds    x[6]
 LO bounds    x[7]      0
 PL bounds    x[7]
 LO bounds    x[8]      0
 PL bounds    x[8]
 LO bounds    x[9]      0
 PL bounds    x[9]
 LO bounds    x[10]     0
 PL bounds    x[10]
 LO bounds    x[11]     0
 PL bounds    x[11]
 LO bounds    x[12]     0
 PL bounds    x[12]
 LO bounds    x[13]     0
 PL bounds    x[13]
 LO bounds    x[14]     0
 PL bounds    x[14]
 LO bounds    x[15]     0
 PL bounds    x[15]
 LO bounds    x[16]     0
 PL bounds    x[16]
 LO bounds    x[17]     0
 PL bounds    x[17]
 LO bounds    x[18]     0
 PL bounds    x[18]
 LO bounds    x[19]     0
 PL bounds    x[19]
 LO bounds    x[20]     0
 PL bounds    x[20]
 LO bounds    x[21]     0
 PL bounds    x[21]
 LO bounds    x[22]     0
 PL bounds    x[22]
 LO bounds    x[23]     0
 PL bounds    x[23]
 LO bounds    x[24]     0
 PL bounds    x[24]
 LO bounds    x[25]     0
 PL bounds    x[25]
 LO bounds    x[26]     0
 PL bounds    x[26]
 LO bounds    x[27]     0
 PL bounds    x[27]
 LO bounds    x[28]     0
 PL bounds    x[28]
 LO bounds    x[29]     0
 PL bounds    x[29]
 LO bounds    x[30]     0
 PL bounds    x[30]
 LO bounds    x[31]     0
 PL bounds    x[31]
 LO bounds    x[32]     0
 PL bounds    x[32]
 LO bounds    x[33]     0
 PL bounds    x[33]
 LO bounds    x[34]     0
 PL bounds    x[34]
 LO bounds    x[35]     0
 PL bounds    x[35]
 LO bounds    x[36]     0
 PL bounds    x[36]
 LO bounds    x[37]     0
 PL bounds    x[37]
 LO bounds    x[38]     0
 PL bounds    x[38]
 LO bounds    x[39]     0
 PL bounds    x[39]
 LO bounds    x[40]     0
 PL bounds    x[40]
 LO bounds    x[41]     0
 PL bounds    x[41]
 LO bounds    x[42]     0
 PL bounds    x[42]
 LO bounds    x[43]     0
 PL bounds    x[43]
 LO bounds    x[44]     0
 PL bounds    x[44]
 LO bounds    x[45]     0
 PL bounds    x[45]
 LO bounds    x[46]     0
 PL bounds    x[46]
 LO bounds    x[47]     0
 PL bounds    x[47]
 LO bounds    x[48]     0
 PL bounds    x[48]
 LO bounds    x[49]     0
 PL bounds    x[49]
 LO bounds    x[50]     0
 PL bounds    x[50]
 LO bounds    x[51]     0
 PL bounds    x[51]
 LO bounds    x[52]     0
 PL bounds    x[52]
 LO bounds    x[53]     0
 PL bounds    x[53]
 LO bounds    x[54]     0
 PL bounds    x[54]
 LO bounds    x[55]     0
 PL bounds    x[55]
 LO bounds    x[56]     0
 PL bounds    x[56]
 LO bounds    x[57]     0
 PL bounds    x[57]
 LO bounds    x[58]     0
 PL bounds    x[58]
 LO bounds    x[59]     0
 PL bounds    x[59]
 LO bounds    x[60]     0
 PL bounds    x[60]
 LO bounds    x[61]     0
 PL bounds    x[61]
 LO bounds    x[62]     0
 PL bounds    x[62]
 LO bounds    x[63]     0
 PL bounds    x[63]
 LO bounds    x[64]     0
 PL bounds    x[64]
 LO bounds    x[65]     0
 PL bounds    x[65]
 LO bounds    x[66]     0
 PL bounds    x[66]
 LO bounds    x[67]     0
 PL bounds    x[67]
 LO bounds    x[68]     0
 PL bounds    x[68]
 LO bounds    x[69]     0
 PL bounds    x[69]
 LO bounds    x[70]     0
 PL bounds    x[70]
 LO bounds    x[71]     0
 PL bounds    x[71]
 LO bounds    x[72]     0
 PL bounds    x[72]
 LO bounds    x[73]     0
 PL bounds    x[73]
 LO bounds    x[74]     0
 PL bounds    x[74]
 LO bounds    x[75]     0
 PL bounds    x[75]
 LO bounds    x[76]     0
 PL bounds    x[76]
 LO bounds    x[77]     0
 PL bounds    x[77]
 LO bounds    x[78]     0
 PL bounds    x[78]
 LO bounds    x[79]     0
 PL bounds    x[79]
 LO bounds    x[80]     0
 PL bounds    x[80]
 LO bounds    x[81]     0
 PL bounds    x[81]
 LO bounds    x[82]     0
 PL bounds    x[82]
 LO bounds    x[83]     0
 PL bounds    x[83]
 LO bounds    x[84]     0
 PL bounds    x[84]
 LO bounds    x[85]     0
 PL bounds    x[85]
 LO bounds    x[86]     0
 PL bounds    x[86]
 LO bounds    x[87]     0
 PL bounds    x[87]
 LO bounds    x[88]     0
 PL bounds    x[88]
 LO bounds    x[89]     0
 PL bounds    x[89]
 LO bounds    x[90]     0
 PL bounds    x[90]
 LO bounds    x[91]     0
 PL bounds    x[91]
 LO bounds    x[92]     0
 PL bounds    x[92]
 LO bounds    x[93]     0
 PL bounds    x[93]
 LO bounds    x[94]     0
 PL bounds    x[94]
 LO bounds    x[95]     0
 PL bounds    x[95]
 LO bounds    x[96]     0
 PL bounds    x[96]
 LO bounds    x[97]     0
 PL bounds    x[97]
 LO bounds    x[98]     0
 PL bounds    x[98]
 LO bounds    x[99]     0
 PL bounds    x[99]
 LO bounds    x[100]    0
 PL bounds    x[100]
ENDATA
